p cnf 222 492
1 0
2 0
3 0
4 0
5 0
6 0
7 8 0
9 10 0
11 12 0
13 14 0
15 16 0
17 18 0
19 20 0
21 22 0
23 24 0
25 0
26 0
-27 25 0
-28 27 0
-29 28 0
-30 29 0
-31 30 0
-32 31 0
-33 32 0
-34 33 0
-35 34 0
-36 35 0
-37 38 0
-38 39 0
-39 40 0
-40 41 0
-41 26 0
-26 42 0
-42 43 0
-43 44 0
-44 45 0
-45 46 0
-25 -38 0
-27 -39 0
-28 -40 0
-29 -41 0
-30 -26 0
-31 -42 0
-32 -43 0
-33 -44 0
-34 -45 0
-35 -46 0
-25 -1 47 0
-25 -7 48 0
-25 -9 49 0
-27 -1 50 0
-27 -7 51 0
-27 -9 52 0
-28 -1 53 0
-28 -7 54 0
-28 -9 55 0
-29 -1 56 0
-29 -7 57 0
-29 -9 58 0
-30 -1 59 0
-30 -7 60 0
-30 -9 61 0
-31 -1 62 0
-31 -7 63 0
-31 -9 64 0
-32 -1 65 0
-32 -7 66 0
-32 -9 67 0
-33 -1 68 0
-33 -7 69 0
-33 -9 70 0
-34 -1 71 0
-34 -7 72 0
-34 -9 73 0
47 0
74 0
-75 76 0
-47 75 0
-50 47 0
-53 50 0
-56 53 0
-59 56 0
-62 59 0
-65 62 0
-68 65 0
-71 68 0
-77 78 0
-78 79 0
-79 80 0
-80 81 0
-81 82 0
-82 74 0
-74 83 0
-83 84 0
-84 85 0
-85 86 0
-76 -77 0
-75 -78 0
-47 -79 0
-50 -80 0
-53 -81 0
-56 -82 0
-59 -74 0
-62 -83 0
-65 -84 0
-68 -85 0
-71 -86 0
-76 -2 87 0
-76 -13 88 0
-76 -15 89 0
-75 -2 90 0
-75 -13 91 0
-75 -15 92 0
-47 -2 93 0
-47 -13 94 0
-47 -15 95 0
-50 -2 96 0
-50 -13 97 0
-50 -15 98 0
-53 -2 99 0
-53 -13 100 0
-53 -15 101 0
-56 -2 102 0
-56 -13 103 0
-56 -15 104 0
-59 -2 105 0
-59 -13 106 0
-59 -15 107 0
-62 -2 108 0
-62 -13 109 0
-62 -15 110 0
-65 -2 111 0
-65 -13 112 0
-65 -15 113 0
-68 -2 114 0
-68 -13 115 0
-68 -15 116 0
93 0
117 0
-87 118 0
-90 87 0
-93 90 0
-96 93 0
-99 96 0
-102 99 0
-105 102 0
-108 105 0
-111 108 0
-114 111 0
-119 120 0
-120 121 0
-121 122 0
-122 123 0
-123 124 0
-124 125 0
-125 126 0
-126 127 0
-127 128 0
-128 117 0
-118 -122 0
-87 -123 0
-90 -124 0
-93 -125 0
-96 -126 0
-99 -127 0
-102 -128 0
-105 -117 0
-118 -19 129 0
-118 -21 130 0
-87 -19 131 0
-87 -21 132 0
-90 -19 133 0
-90 -21 134 0
-93 -19 135 0
-93 -21 136 0
-96 -19 137 0
-96 -21 138 0
-99 -19 139 0
-99 -21 140 0
-102 -19 141 0
-102 -21 142 0
143 0
144 0
-145 143 0
-48 145 0
-51 48 0
-54 51 0
-57 54 0
-60 57 0
-63 60 0
-66 63 0
-69 66 0
-72 69 0
-146 147 0
-147 148 0
-148 149 0
-149 150 0
-150 151 0
-151 144 0
-144 152 0
-152 153 0
-153 154 0
-154 155 0
-143 -148 0
-145 -149 0
-48 -150 0
-51 -151 0
-54 -144 0
-57 -152 0
-60 -153 0
-63 -154 0
-66 -155 0
-143 -3 156 0
-143 -8 29 0
-143 -11 52 0
-145 -3 129 0
-145 -8 30 0
-145 -11 55 0
-48 -3 131 0
-48 -8 31 0
-48 -11 58 0
-51 -3 133 0
-51 -8 32 0
-51 -11 61 0
-54 -3 135 0
-54 -8 33 0
-54 -11 64 0
-57 -3 137 0
-57 -8 34 0
-57 -11 67 0
-60 -3 139 0
-60 -8 35 0
-60 -11 70 0
-63 -3 141 0
-63 -8 36 0
-63 -11 73 0
156 0
157 0
-158 159 0
-160 158 0
-156 160 0
-129 156 0
-131 129 0
-133 131 0
-135 133 0
-137 135 0
-139 137 0
-141 139 0
-161 162 0
-162 163 0
-163 164 0
-164 165 0
-165 166 0
-166 167 0
-167 168 0
-168 157 0
-157 169 0
-169 170 0
-159 -162 0
-158 -163 0
-160 -164 0
-156 -165 0
-129 -166 0
-131 -167 0
-133 -168 0
-135 -157 0
-137 -169 0
-139 -170 0
-159 -4 91 0
-159 -20 90 0
-159 -23 171 0
-158 -4 94 0
-158 -20 93 0
-158 -23 172 0
-160 -4 97 0
-160 -20 96 0
-160 -23 130 0
-156 -4 100 0
-156 -20 99 0
-156 -23 132 0
-129 -4 103 0
-129 -20 102 0
-129 -23 134 0
-131 -4 106 0
-131 -20 105 0
-131 -23 136 0
-133 -4 109 0
-133 -20 108 0
-133 -23 138 0
-135 -4 112 0
-135 -20 111 0
-135 -23 140 0
-137 -4 115 0
-137 -20 114 0
-137 -23 142 0
100 0
173 0
-88 174 0
-91 88 0
-94 91 0
-97 94 0
-100 97 0
-103 100 0
-106 103 0
-109 106 0
-112 109 0
-115 112 0
-175 176 0
-176 177 0
-177 178 0
-178 179 0
-179 180 0
-180 181 0
-181 182 0
-182 183 0
-183 184 0
-184 173 0
-174 -176 0
-88 -177 0
-91 -178 0
-94 -179 0
-97 -180 0
-100 -181 0
-103 -182 0
-106 -183 0
-109 -184 0
-112 -173 0
-174 -14 47 0
-174 -17 92 0
-88 -14 50 0
-88 -17 95 0
-91 -14 53 0
-91 -17 98 0
-94 -14 56 0
-94 -17 101 0
-97 -14 59 0
-97 -17 104 0
-100 -14 62 0
-100 -17 107 0
-103 -14 65 0
-103 -17 110 0
-106 -14 68 0
-106 -17 113 0
-109 -14 71 0
-109 -17 116 0
185 0
186 0
-187 185 0
-171 187 0
-172 171 0
-130 172 0
-132 130 0
-134 132 0
-136 134 0
-138 136 0
-140 138 0
-142 140 0
-188 189 0
-189 186 0
-186 190 0
-190 191 0
-191 192 0
-192 193 0
-193 194 0
-194 195 0
-195 196 0
-196 197 0
-185 -190 0
-187 -191 0
-171 -192 0
-172 -193 0
-130 -194 0
-132 -195 0
-134 -196 0
-136 -197 0
-185 -5 98 0
-185 -22 96 0
-185 -24 129 0
-187 -5 101 0
-187 -22 99 0
-187 -24 131 0
-171 -5 104 0
-171 -22 102 0
-171 -24 133 0
-172 -5 107 0
-172 -22 105 0
-172 -24 135 0
-130 -5 110 0
-130 -22 108 0
-130 -24 137 0
-132 -5 113 0
-132 -22 111 0
-132 -24 139 0
-134 -5 116 0
-134 -22 114 0
-134 -24 141 0
98 0
198 0
-89 199 0
-92 89 0
-95 92 0
-98 95 0
-101 98 0
-104 101 0
-107 104 0
-110 107 0
-113 110 0
-116 113 0
-200 201 0
-201 202 0
-202 203 0
-203 204 0
-204 198 0
-198 205 0
-205 206 0
-206 207 0
-207 208 0
-208 209 0
-199 -202 0
-89 -203 0
-92 -204 0
-95 -198 0
-98 -205 0
-101 -206 0
-104 -207 0
-107 -208 0
-110 -209 0
-199 -6 52 0
-199 -16 50 0
-199 -18 94 0
-89 -6 55 0
-89 -16 53 0
-89 -18 97 0
-92 -6 58 0
-92 -16 56 0
-92 -18 100 0
-95 -6 61 0
-95 -16 59 0
-95 -18 103 0
-98 -6 64 0
-98 -16 62 0
-98 -18 106 0
-101 -6 67 0
-101 -16 65 0
-101 -18 109 0
-104 -6 70 0
-104 -16 68 0
-104 -18 112 0
-107 -6 73 0
-107 -16 71 0
-107 -18 115 0
64 0
210 0
-211 212 0
-49 211 0
-52 49 0
-55 52 0
-58 55 0
-61 58 0
-64 61 0
-67 64 0
-70 67 0
-73 70 0
-213 214 0
-214 215 0
-215 216 0
-216 217 0
-217 218 0
-218 219 0
-219 220 0
-220 221 0
-221 222 0
-222 210 0
-212 -217 0
-211 -218 0
-49 -219 0
-52 -220 0
-55 -221 0
-58 -222 0
-61 -210 0
-212 -10 31 0
-212 -12 57 0
-211 -10 32 0
-211 -12 60 0
-49 -10 33 0
-49 -12 63 0
-52 -10 34 0
-52 -12 66 0
-55 -10 35 0
-55 -12 69 0
-58 -10 36 0
-58 -12 72 0
